src/swarm_exploration/utils/lkh_mtsp_solver/resource/amtsp3_1.atsp
NAME : pairopt
TYPE : ACVRP
DIMENSION : 5
EDGE_WEIGHT_TYPE : EXPLICIT
EDGE_WEIGHT_FORMAT : FULL_MATRIX
CAPACITY : 249
VEHICLES : 2
EDGE_WEIGHT_SECTION
100000 -100000 -100000 100000 100000 
100000 100000 1000000 -403 2000 
100000 1000000 100000 2362 2299 
0 0 0 100000 1954 
0 0 0 1954 100000 
DEMAND_SECTION
1 0
2 0
3 0
4 120
5 212
DEPOT_SECTION
1
EOF