src/swarm_exploration/utils/lkh_mtsp_solver/resource/amtsp3_1.tour
NAME : pairopt.-198104.tour
COMMENT : Length = -198104
COMMENT : Found by LKH-3 [Keld Helsgaun] Tue Apr  9 14:20:12 2024
TYPE : TOUR
DIMENSION : 6
TOUR_SECTION
1
3
5
6
2
4
-1
EOF
